(set-logic QF_ABV)

(declare-const __ESBMC_ptr_obj_start_0 (_ BitVec 64))

(declare-const __ESBMC_ptr_obj_end_0 (_ BitVec 64))

(declare-const __ESBMC_ptr_obj_start_1 (_ BitVec 64))

(declare-const __ESBMC_ptr_obj_end_1 (_ BitVec 64))

(declare-const |smt_conv::__ESBMC_ptr_addr_range_0..start0| (_ BitVec 64))

(declare-const |smt_conv::__ESBMC_ptr_addr_range_0..end0| (_ BitVec 64))

(declare-const |smt_conv::__ESBMC_ptr_addr_range_1..start0| (_ BitVec 64))

(declare-const |smt_conv::__ESBMC_ptr_addr_range_1..end0| (_ BitVec 64))

(declare-const |smt_conv::smt_conv::collate_array_vals::0..start0| (_ BitVec 64))

(declare-const |smt_conv::smt_conv::collate_array_vals::0..end0| (_ BitVec 64))

(declare-const |smt_conv::smt_conv::collate_array_vals::3..start0| (_ BitVec 64))

(declare-const |smt_conv::smt_conv::collate_array_vals::3..end0| (_ BitVec 64))

(declare-const |smt_conv::smt_conv::collate_array_vals::4..start0| (_ BitVec 64))

(declare-const |smt_conv::smt_conv::collate_array_vals::4..end0| (_ BitVec 64))

(declare-const |smt_conv::smt_conv::collate_array_vals::7..start0| (_ BitVec 64))

(declare-const |smt_conv::smt_conv::collate_array_vals::7..end0| (_ BitVec 64))

(declare-const |goto_symex::guard?0!0&0#1| (_ BitVec 1))

(declare-const __ESBMC_ptr_obj_start_2 (_ BitVec 64))

(declare-const __ESBMC_ptr_obj_end_2 (_ BitVec 64))

(declare-const |smt_conv::__ESBMC_ptr_addr_range_2..start0| (_ BitVec 64))

(declare-const |smt_conv::__ESBMC_ptr_addr_range_2..end0| (_ BitVec 64))

(declare-const |smt_conv::smt_conv::collate_array_vals::9..start0| (_ BitVec 64))

(declare-const |smt_conv::smt_conv::collate_array_vals::9..end0| (_ BitVec 64))

(declare-const |smt_conv::smt_conv::collate_array_vals::10..start0| (_ BitVec 64))

(declare-const |smt_conv::smt_conv::collate_array_vals::10..end0| (_ BitVec 64))

(declare-const |smt_conv::smt_conv::collate_array_vals::11..start0| (_ BitVec 64))

(declare-const |smt_conv::smt_conv::collate_array_vals::11..end0| (_ BitVec 64))

(declare-const |smt_conv::smt_conv::collate_array_vals::15..start0| (_ BitVec 64))

(declare-const |smt_conv::smt_conv::collate_array_vals::15..end0| (_ BitVec 64))

(declare-const |smt_conv::smt_conv::collate_array_vals::16..start0| (_ BitVec 64))

(declare-const |smt_conv::smt_conv::collate_array_vals::16..end0| (_ BitVec 64))

(declare-const |smt_conv::symex_dynamic::dynamic_451_array..pointer_object0| (_ BitVec 64))

(declare-const |smt_conv::symex_dynamic::dynamic_451_array..pointer_offset0| (_ BitVec 64))

(declare-const |goto_symex::guard?0!0&0#2| (_ BitVec 1))

(declare-const |goto_symex::guard?0!0&0#3| (_ BitVec 1))

(declare-const __ESBMC_ptr_obj_start_3 (_ BitVec 64))

(declare-const __ESBMC_ptr_obj_end_3 (_ BitVec 64))

(declare-const |smt_conv::__ESBMC_ptr_addr_range_3..start0| (_ BitVec 64))

(declare-const |smt_conv::__ESBMC_ptr_addr_range_3..end0| (_ BitVec 64))

(declare-const |smt_conv::smt_conv::collate_array_vals::18..start0| (_ BitVec 64))

(declare-const |smt_conv::smt_conv::collate_array_vals::18..end0| (_ BitVec 64))

(declare-const |smt_conv::smt_conv::collate_array_vals::19..start0| (_ BitVec 64))

(declare-const |smt_conv::smt_conv::collate_array_vals::19..end0| (_ BitVec 64))

(declare-const |smt_conv::smt_conv::collate_array_vals::20..start0| (_ BitVec 64))

(declare-const |smt_conv::smt_conv::collate_array_vals::20..end0| (_ BitVec 64))

(declare-const |smt_conv::smt_conv::collate_array_vals::21..start0| (_ BitVec 64))

(declare-const |smt_conv::smt_conv::collate_array_vals::21..end0| (_ BitVec 64))

(declare-const |smt_conv::smt_conv::collate_array_vals::26..start0| (_ BitVec 64))

(declare-const |smt_conv::smt_conv::collate_array_vals::26..end0| (_ BitVec 64))

(declare-const |smt_conv::smt_conv::collate_array_vals::27..start0| (_ BitVec 64))

(declare-const |smt_conv::smt_conv::collate_array_vals::27..end0| (_ BitVec 64))

(declare-const |smt_conv::smt_conv::collate_array_vals::28..start0| (_ BitVec 64))

(declare-const |smt_conv::smt_conv::collate_array_vals::28..end0| (_ BitVec 64))

(declare-const |smt_conv::symex_dynamic::dynamic_452_array..pointer_object0| (_ BitVec 64))

(declare-const |smt_conv::symex_dynamic::dynamic_452_array..pointer_offset0| (_ BitVec 64))

(declare-const |execution_statet::guard_exec?0!0| (_ BitVec 1))

(declare-const |goto_symex::guard?0!0&0#4| (_ BitVec 1))

(declare-const |c:@F@ibmphp_find_same_bus_num::$tmp::return_value$___VERIFIER_nondet_int$1?1!0&0#1| (_ BitVec 32))

(declare-const |nondet$symex::nondet452| (_ BitVec 32))

(declare-const |goto_symex::guard?0!0&0#5| (_ BitVec 1))

(declare-const __ESBMC_ptr_obj_start_4 (_ BitVec 64))

(declare-const __ESBMC_ptr_obj_end_4 (_ BitVec 64))

(declare-const |smt_conv::__ESBMC_ptr_addr_range_4..start0| (_ BitVec 64))

(declare-const |smt_conv::__ESBMC_ptr_addr_range_4..end0| (_ BitVec 64))

(declare-const |smt_conv::smt_conv::collate_array_vals::30..start0| (_ BitVec 64))

(declare-const |smt_conv::smt_conv::collate_array_vals::30..end0| (_ BitVec 64))

(declare-const |smt_conv::smt_conv::collate_array_vals::31..start0| (_ BitVec 64))

(declare-const |smt_conv::smt_conv::collate_array_vals::31..end0| (_ BitVec 64))

(declare-const |smt_conv::smt_conv::collate_array_vals::32..start0| (_ BitVec 64))

(declare-const |smt_conv::smt_conv::collate_array_vals::32..end0| (_ BitVec 64))

(declare-const |smt_conv::smt_conv::collate_array_vals::33..start0| (_ BitVec 64))

(declare-const |smt_conv::smt_conv::collate_array_vals::33..end0| (_ BitVec 64))

(declare-const |smt_conv::smt_conv::collate_array_vals::34..start0| (_ BitVec 64))

(declare-const |smt_conv::smt_conv::collate_array_vals::34..end0| (_ BitVec 64))

(declare-const |smt_conv::smt_conv::collate_array_vals::40..start0| (_ BitVec 64))

(declare-const |smt_conv::smt_conv::collate_array_vals::40..end0| (_ BitVec 64))

(declare-const |smt_conv::smt_conv::collate_array_vals::41..start0| (_ BitVec 64))

(declare-const |smt_conv::smt_conv::collate_array_vals::41..end0| (_ BitVec 64))

(declare-const |smt_conv::smt_conv::collate_array_vals::42..start0| (_ BitVec 64))

(declare-const |smt_conv::smt_conv::collate_array_vals::42..end0| (_ BitVec 64))

(declare-const |smt_conv::smt_conv::collate_array_vals::43..start0| (_ BitVec 64))

(declare-const |smt_conv::smt_conv::collate_array_vals::43..end0| (_ BitVec 64))

(declare-const |smt_conv::symex_dynamic::dynamic_454_array..pointer_object0| (_ BitVec 64))

(declare-const |smt_conv::symex_dynamic::dynamic_454_array..pointer_offset0| (_ BitVec 64))

(declare-const |goto_symex::guard?0!0&0#7| (_ BitVec 1))

(declare-const |smt_conv::smt_conv::collate_array_vals::45..start0| (_ BitVec 64))

(declare-const |smt_conv::smt_conv::collate_array_vals::45..end0| (_ BitVec 64))

(declare-const |smt_conv::smt_conv::collate_array_vals::46..start0| (_ BitVec 64))

(declare-const |smt_conv::smt_conv::collate_array_vals::46..end0| (_ BitVec 64))

(declare-const |smt_conv::smt_conv::collate_array_vals::47..start0| (_ BitVec 64))

(declare-const |smt_conv::smt_conv::collate_array_vals::47..end0| (_ BitVec 64))

(declare-const |smt_conv::smt_conv::collate_array_vals::48..start0| (_ BitVec 64))

(declare-const |smt_conv::smt_conv::collate_array_vals::48..end0| (_ BitVec 64))

(declare-const |smt_conv::smt_conv::collate_array_vals::49..start0| (_ BitVec 64))

(declare-const |smt_conv::smt_conv::collate_array_vals::49..end0| (_ BitVec 64))

(declare-const |smt_conv::smt_conv::collate_array_vals::50..start0| (_ BitVec 64))

(declare-const |smt_conv::smt_conv::collate_array_vals::50..end0| (_ BitVec 64))

(declare-const |c:@F@fillslotinfo::$tmp::return_value$___VERIFIER_nondet_int$1?1!0&0#1| (_ BitVec 32))

(declare-const |nondet$symex::nondet454| (_ BitVec 32))

(declare-const |c:rule57_ebda_blast_2.i@1386@F@ebda_rsrc_controller@rc?1!0&0#6| (_ BitVec 32))

(declare-const |goto_symex::guard?0!0&0#8| (_ BitVec 1))

(declare-const |c:@F@ibmphp_init_devno::$tmp::return_value$___VERIFIER_nondet_int$1?1!0&0#1| (_ BitVec 32))

(declare-const |nondet$symex::nondet455| (_ BitVec 32))

(declare-const |c:rule57_ebda_blast_2.i@1386@F@ebda_rsrc_controller@rc?1!0&0#7| (_ BitVec 32))

(declare-const |goto_symex::guard?0!0&0#9| (_ BitVec 1))

(declare-const |c:@used_tmp_slot&0#4| (_ BitVec 32))

(declare-const |smt_conv::smt_conv::smt_convt::int_to_ptr0..pointer_object0| (_ BitVec 64))

(declare-const |smt_conv::smt_conv::smt_convt::int_to_ptr0..pointer_offset0| (_ BitVec 64))

(declare-const |goto_symex::guard?0!0&0#10| (_ BitVec 1))

(declare-const |c:@freed_tmp_slot&0#4| (_ BitVec 32))

(declare-const |c:@freed_tmp_slot&0#5| (_ BitVec 32))

(declare-const |c:@used_tmp_slot&0#5| (_ BitVec 32))

(declare-const |c:@freed_tmp_slot&0#6| (_ BitVec 32))

(declare-const |c:@used_tmp_slot&0#6| (_ BitVec 32))

(declare-const |c:@freed_tmp_slot&0#7| (_ BitVec 32))

(declare-const |c:@used_tmp_slot&0#7| (_ BitVec 32))

(declare-const |goto_symex::guard?0!0&0#11| (_ BitVec 1))

(declare-const |goto_symex::guard?0!0&0#12| (_ BitVec 1))

(declare-const |__ESBMC_is_dynamic&0#1| (Array (_ BitVec 64) (_ BitVec 1)))

(declare-const |symex_dynamic::dynamic_451_array&0#1| (Array (_ BitVec 4) (_ BitVec 8)))

(declare-const |symex_dynamic::dynamic_451_array&0#0| (Array (_ BitVec 4) (_ BitVec 8)))

(declare-const |symex_dynamic::dynamic_451_array&0#2| (Array (_ BitVec 4) (_ BitVec 8)))

(declare-const |symex_dynamic::dynamic_451_array&0#3| (Array (_ BitVec 4) (_ BitVec 8)))

(declare-const |symex_dynamic::dynamic_451_array&0#4| (Array (_ BitVec 4) (_ BitVec 8)))

(declare-const |symex_dynamic::dynamic_451_array&0#5| (Array (_ BitVec 4) (_ BitVec 8)))

(declare-const |symex_dynamic::dynamic_451_array&0#6| (Array (_ BitVec 4) (_ BitVec 8)))

(declare-const |symex_dynamic::dynamic_451_array&0#7| (Array (_ BitVec 4) (_ BitVec 8)))

(declare-const |symex_dynamic::dynamic_451_array&0#8| (Array (_ BitVec 4) (_ BitVec 8)))

(declare-const |symex_dynamic::dynamic_451_array&0#9| (Array (_ BitVec 4) (_ BitVec 8)))

(declare-const |symex_dynamic::dynamic_451_array&0#10| (Array (_ BitVec 4) (_ BitVec 8)))

(declare-const |symex_dynamic::dynamic_451_array&0#11| (Array (_ BitVec 4) (_ BitVec 8)))

(declare-const |symex_dynamic::dynamic_451_array&0#12| (Array (_ BitVec 4) (_ BitVec 8)))

(declare-const |symex_dynamic::dynamic_451_array&0#13| (Array (_ BitVec 4) (_ BitVec 8)))

(declare-const |symex_dynamic::dynamic_451_array&0#14| (Array (_ BitVec 4) (_ BitVec 8)))

(declare-const |symex_dynamic::dynamic_451_array&0#15| (Array (_ BitVec 4) (_ BitVec 8)))

(declare-const |symex_dynamic::dynamic_451_array&0#16| (Array (_ BitVec 4) (_ BitVec 8)))

(declare-const |symex_dynamic::dynamic_451_array&0#17| (Array (_ BitVec 4) (_ BitVec 8)))

(declare-const |symex_dynamic::dynamic_451_array&0#18| (Array (_ BitVec 4) (_ BitVec 8)))

(declare-const |symex_dynamic::dynamic_451_array&0#19| (Array (_ BitVec 4) (_ BitVec 8)))

(declare-const |symex_dynamic::dynamic_451_array&0#20| (Array (_ BitVec 4) (_ BitVec 8)))

(declare-const |symex_dynamic::dynamic_451_array&0#21| (Array (_ BitVec 4) (_ BitVec 8)))

(declare-const |symex_dynamic::dynamic_451_array&0#22| (Array (_ BitVec 4) (_ BitVec 8)))

(declare-const |symex_dynamic::dynamic_451_array&0#23| (Array (_ BitVec 4) (_ BitVec 8)))

(declare-const |symex_dynamic::dynamic_451_array&0#24| (Array (_ BitVec 4) (_ BitVec 8)))

(declare-const |symex_dynamic::dynamic_451_array&0#25| (Array (_ BitVec 4) (_ BitVec 8)))

(declare-const |symex_dynamic::dynamic_451_array&0#26| (Array (_ BitVec 4) (_ BitVec 8)))

(declare-const |symex_dynamic::dynamic_451_array&0#27| (Array (_ BitVec 4) (_ BitVec 8)))

(declare-const |symex_dynamic::dynamic_451_array&0#28| (Array (_ BitVec 4) (_ BitVec 8)))

(declare-const |symex_dynamic::dynamic_451_array&0#29| (Array (_ BitVec 4) (_ BitVec 8)))

(define-fun $e1 () Bool 

 (= #b0000000000000000000000000000000000000000000000000000000000000000 |smt_conv::symex_dynamic::dynamic_451_array..pointer_object0|))

(define-fun $e2 () Bool 

 (= #b0000000000000000000000000000000000000000000000000000000000000000 |smt_conv::symex_dynamic::dynamic_452_array..pointer_object0|))

(define-fun $e3 () Bool 

 (= #b0000000000000000000000000000000000000000000000000000000000000001 |smt_conv::symex_dynamic::dynamic_452_array..pointer_object0|))

(define-fun $e4 () Bool 

 (= #b0000000000000000000000000000000000000000000000000000000000000010 |smt_conv::symex_dynamic::dynamic_452_array..pointer_object0|))

(define-fun $e5 () Bool 

 (= #b0000000000000000000000000000000000000000000000000000000000000100 |smt_conv::symex_dynamic::dynamic_452_array..pointer_object0|))

(define-fun $e6 () (_ BitVec 64) 

 (concat 

  (concat 

   (concat 

    (concat 

     (concat 

      (concat 

       (concat 

        (select |symex_dynamic::dynamic_451_array&0#29| #b0111) 

        (select |symex_dynamic::dynamic_451_array&0#29| #b0110)) 

       (select |symex_dynamic::dynamic_451_array&0#29| #b0101)) 

      (select |symex_dynamic::dynamic_451_array&0#29| #b0100)) 

     (select |symex_dynamic::dynamic_451_array&0#29| #b0011)) 

    (select |symex_dynamic::dynamic_451_array&0#29| #b0010)) 

   (select |symex_dynamic::dynamic_451_array&0#29| #b0001)) 

  (select |symex_dynamic::dynamic_451_array&0#29| #b0000)))

(define-fun $e7 () Bool 

 (and 

  (not 

   (bvult __ESBMC_ptr_obj_end_0 $e6)) 

  (not 

   (bvult $e6 __ESBMC_ptr_obj_start_0))))

(define-fun $e8 () Bool 

 (and 

  (not 

   (bvult __ESBMC_ptr_obj_end_2 $e6)) 

  (not 

   (bvult $e6 __ESBMC_ptr_obj_start_2))))

(define-fun $e9 () Bool 

 (and 

  (not 

   (bvult __ESBMC_ptr_obj_end_3 $e6)) 

  (not 

   (bvult $e6 __ESBMC_ptr_obj_start_3))))

(define-fun $e10 () Bool 

 (and 

  (not 

   (bvult __ESBMC_ptr_obj_end_4 $e6)) 

  (not 

   (bvult $e6 __ESBMC_ptr_obj_start_4))))

(define-fun $e11 () Bool 

 (= #b0000000000000000000000000000000000000000000000000000000000000000 |smt_conv::smt_conv::smt_convt::int_to_ptr0..pointer_object0|))

(define-fun $e12 () (_ BitVec 1) 

 (bvand 

  (bvand 

   (bvand 

    (bvand 

     (bvnot |goto_symex::guard?0!0&0#2|) 

     (bvnot |goto_symex::guard?0!0&0#4|)) 

    (bvnot |goto_symex::guard?0!0&0#7|)) |goto_symex::guard?0!0&0#8|) |goto_symex::guard?0!0&0#9|))

(assert 

 (= __ESBMC_ptr_obj_start_0 #b0000000000000000000000000000000000000000000000000000000000000000))

(assert 

 (= #b0000000000000000000000000000000000000000000000000000000000000000 __ESBMC_ptr_obj_end_0))

(assert 

 (= __ESBMC_ptr_obj_start_1 #b0000000000000000000000000000000000000000000000000000000000000001))

(assert 

 (= #b1111111111111111111111111111111111111111111111111111111111111111 __ESBMC_ptr_obj_end_1))

(assert 

 (= __ESBMC_ptr_obj_end_0 |smt_conv::__ESBMC_ptr_addr_range_0..end0|))

(assert 

 (= __ESBMC_ptr_obj_start_0 |smt_conv::__ESBMC_ptr_addr_range_0..start0|))

(assert 

 (= __ESBMC_ptr_obj_end_1 |smt_conv::__ESBMC_ptr_addr_range_1..end0|))

(assert 

 (= __ESBMC_ptr_obj_start_1 |smt_conv::__ESBMC_ptr_addr_range_1..start0|))

(assert 

 (= |smt_conv::smt_conv::collate_array_vals::3..end0| |smt_conv::smt_conv::collate_array_vals::4..end0|))

(assert 

 (= |smt_conv::smt_conv::collate_array_vals::3..start0| |smt_conv::smt_conv::collate_array_vals::4..start0|))

(assert 

 (= __ESBMC_ptr_obj_end_0 |smt_conv::smt_conv::collate_array_vals::7..end0|))

(assert 

 (= __ESBMC_ptr_obj_start_0 |smt_conv::smt_conv::collate_array_vals::7..start0|))

(assert 

 (= 

  (bvadd __ESBMC_ptr_obj_start_2 #b0000000000000000000000000000000000000000000000000000000000010000) __ESBMC_ptr_obj_end_2))

(assert 

 (bvult __ESBMC_ptr_obj_start_2 __ESBMC_ptr_obj_end_2))

(assert 

 (not 

  (and 

   (not 

    (bvult __ESBMC_ptr_obj_end_0 __ESBMC_ptr_obj_start_2)) 

   (not 

    (bvult __ESBMC_ptr_obj_end_2 __ESBMC_ptr_obj_start_0)))))

(assert 

 (= __ESBMC_ptr_obj_end_2 |smt_conv::__ESBMC_ptr_addr_range_2..end0|))

(assert 

 (= __ESBMC_ptr_obj_start_2 |smt_conv::__ESBMC_ptr_addr_range_2..start0|))

(assert 

 (= |smt_conv::smt_conv::collate_array_vals::9..end0| |smt_conv::smt_conv::collate_array_vals::10..end0|))

(assert 

 (= |smt_conv::smt_conv::collate_array_vals::9..start0| |smt_conv::smt_conv::collate_array_vals::10..start0|))

(assert 

 (= |smt_conv::smt_conv::collate_array_vals::10..end0| |smt_conv::smt_conv::collate_array_vals::11..end0|))

(assert 

 (= |smt_conv::smt_conv::collate_array_vals::10..start0| |smt_conv::smt_conv::collate_array_vals::11..start0|))

(assert 

 (= |smt_conv::smt_conv::collate_array_vals::7..end0| |smt_conv::smt_conv::collate_array_vals::15..end0|))

(assert 

 (= |smt_conv::smt_conv::collate_array_vals::7..start0| |smt_conv::smt_conv::collate_array_vals::15..start0|))

(assert 

 (= __ESBMC_ptr_obj_end_1 |smt_conv::smt_conv::collate_array_vals::16..end0|))

(assert 

 (= __ESBMC_ptr_obj_start_1 |smt_conv::smt_conv::collate_array_vals::16..start0|))

(assert (= 

 (bvnot 

  (select |__ESBMC_is_dynamic&0#1| #b0000000000000000000000000000000000000000000000000000000000000010)) #b1))

(assert 

 (= #b0000000000000000000000000000000000000000000000000000000000000000 |smt_conv::symex_dynamic::dynamic_451_array..pointer_offset0|))

(assert 

 (= #b0000000000000000000000000000000000000000000000000000000000000010 |smt_conv::symex_dynamic::dynamic_451_array..pointer_object0|))

(assert 

 (= |goto_symex::guard?0!0&0#1| 

  (bvnot 

   (ite $e1 #b1 #b0))))

(assert 

 (= |symex_dynamic::dynamic_451_array&0#1| 

  (store |symex_dynamic::dynamic_451_array&0#0| #b0000 #b00000000)))

(assert 

 (= |symex_dynamic::dynamic_451_array&0#2| 

  (store |symex_dynamic::dynamic_451_array&0#1| #b0001 #b00000000)))

(assert 

 (= |symex_dynamic::dynamic_451_array&0#3| 

  (store |symex_dynamic::dynamic_451_array&0#2| #b0010 #b00000000)))

(assert 

 (= |symex_dynamic::dynamic_451_array&0#4| 

  (store |symex_dynamic::dynamic_451_array&0#3| #b0011 #b00000000)))

(assert 

 (= |symex_dynamic::dynamic_451_array&0#5| 

  (store |symex_dynamic::dynamic_451_array&0#4| #b0100 #b00000000)))

(assert 

 (= |symex_dynamic::dynamic_451_array&0#6| 

  (store |symex_dynamic::dynamic_451_array&0#5| #b0101 #b00000000)))

(assert 

 (= |symex_dynamic::dynamic_451_array&0#7| 

  (store |symex_dynamic::dynamic_451_array&0#6| #b0110 #b00000000)))

(assert 

 (= |symex_dynamic::dynamic_451_array&0#8| 

  (store |symex_dynamic::dynamic_451_array&0#7| #b0111 #b00000000)))

(assert 

 (= |symex_dynamic::dynamic_451_array&0#9| 

  (store |symex_dynamic::dynamic_451_array&0#8| #b1000 #b00000000)))

(assert 

 (= |symex_dynamic::dynamic_451_array&0#10| 

  (store |symex_dynamic::dynamic_451_array&0#9| #b1001 #b00000000)))

(assert 

 (= |symex_dynamic::dynamic_451_array&0#11| 

  (store |symex_dynamic::dynamic_451_array&0#10| #b1010 #b00000000)))

(assert 

 (= |symex_dynamic::dynamic_451_array&0#12| 

  (store |symex_dynamic::dynamic_451_array&0#11| #b1011 #b00000000)))

(assert 

 (= |symex_dynamic::dynamic_451_array&0#13| 

  (store |symex_dynamic::dynamic_451_array&0#12| #b1100 #b00000000)))

(assert 

 (= |symex_dynamic::dynamic_451_array&0#14| 

  (store |symex_dynamic::dynamic_451_array&0#13| #b1101 #b00000000)))

(assert 

 (= |symex_dynamic::dynamic_451_array&0#15| 

  (store |symex_dynamic::dynamic_451_array&0#14| #b1110 #b00000000)))

(assert 

 (= |symex_dynamic::dynamic_451_array&0#16| 

  (store |symex_dynamic::dynamic_451_array&0#15| #b1111 #b00000000)))

(assert 

 (= 

  (ite $e1 #b1 #b0) |goto_symex::guard?0!0&0#2|))

(assert 

 (= |symex_dynamic::dynamic_451_array&0#17| 

  (store |symex_dynamic::dynamic_451_array&0#16| #b1000 #b00000101)))

(assert 

 (= |symex_dynamic::dynamic_451_array&0#18| 

  (store |symex_dynamic::dynamic_451_array&0#17| #b1001 #b00000000)))

(assert 

 (= |symex_dynamic::dynamic_451_array&0#19| 

  (store |symex_dynamic::dynamic_451_array&0#18| #b1010 #b00000000)))

(assert 

 (= |symex_dynamic::dynamic_451_array&0#20| 

  (store |symex_dynamic::dynamic_451_array&0#19| #b1011 #b00000000)))

(assert 

 (= 

  (bvadd __ESBMC_ptr_obj_start_3 #b0000000000000000000000000000000000000000000000000000000000011000) __ESBMC_ptr_obj_end_3))

(assert 

 (bvult __ESBMC_ptr_obj_start_3 __ESBMC_ptr_obj_end_3))

(assert 

 (not 

  (and 

   (not 

    (bvult __ESBMC_ptr_obj_end_0 __ESBMC_ptr_obj_start_3)) 

   (not 

    (bvult __ESBMC_ptr_obj_end_3 __ESBMC_ptr_obj_start_0)))))

(assert 

 (not 

  (and 

   (not 

    (bvult __ESBMC_ptr_obj_end_2 __ESBMC_ptr_obj_start_3)) 

   (not 

    (bvult __ESBMC_ptr_obj_end_3 __ESBMC_ptr_obj_start_2)))))

(assert 

 (= __ESBMC_ptr_obj_end_3 |smt_conv::__ESBMC_ptr_addr_range_3..end0|))

(assert 

 (= __ESBMC_ptr_obj_start_3 |smt_conv::__ESBMC_ptr_addr_range_3..start0|))

(assert 

 (= |smt_conv::smt_conv::collate_array_vals::18..end0| |smt_conv::smt_conv::collate_array_vals::19..end0|))

(assert 

 (= |smt_conv::smt_conv::collate_array_vals::18..start0| |smt_conv::smt_conv::collate_array_vals::19..start0|))

(assert 

 (= |smt_conv::smt_conv::collate_array_vals::19..end0| |smt_conv::smt_conv::collate_array_vals::20..end0|))

(assert 

 (= |smt_conv::smt_conv::collate_array_vals::19..start0| |smt_conv::smt_conv::collate_array_vals::20..start0|))

(assert 

 (= |smt_conv::smt_conv::collate_array_vals::20..end0| |smt_conv::smt_conv::collate_array_vals::21..end0|))

(assert 

 (= |smt_conv::smt_conv::collate_array_vals::20..start0| |smt_conv::smt_conv::collate_array_vals::21..start0|))

(assert 

 (= |smt_conv::smt_conv::collate_array_vals::15..end0| |smt_conv::smt_conv::collate_array_vals::26..end0|))

(assert 

 (= |smt_conv::smt_conv::collate_array_vals::15..start0| |smt_conv::smt_conv::collate_array_vals::26..start0|))

(assert 

 (= |smt_conv::smt_conv::collate_array_vals::16..end0| |smt_conv::smt_conv::collate_array_vals::27..end0|))

(assert 

 (= |smt_conv::smt_conv::collate_array_vals::16..start0| |smt_conv::smt_conv::collate_array_vals::27..start0|))

(assert 

 (= __ESBMC_ptr_obj_end_2 |smt_conv::smt_conv::collate_array_vals::28..end0|))

(assert 

 (= __ESBMC_ptr_obj_start_2 |smt_conv::smt_conv::collate_array_vals::28..start0|))

(assert (= 

 (bvnot 

  (select |__ESBMC_is_dynamic&0#1| #b0000000000000000000000000000000000000000000000000000000000000011)) #b1))

(assert 

 (= #b0000000000000000000000000000000000000000000000000000000000000000 |smt_conv::symex_dynamic::dynamic_452_array..pointer_offset0|))

(assert 

 (= #b0000000000000000000000000000000000000000000000000000000000000011 |smt_conv::symex_dynamic::dynamic_452_array..pointer_object0|))

(assert 

 (= |goto_symex::guard?0!0&0#3| 

  (bvnot 

   (ite $e2 #b1 #b0))))

(assert 

 (= 

  (ite $e2 #b1 #b0) |goto_symex::guard?0!0&0#4|))

(assert 

 (= |c:@F@ibmphp_find_same_bus_num::$tmp::return_value$___VERIFIER_nondet_int$1?1!0&0#1| |nondet$symex::nondet452|))

(assert 

 (= |goto_symex::guard?0!0&0#5| 

  (bvnot 

   (ite 

    (= #b00000000000000000000000000000000 |c:@F@ibmphp_find_same_bus_num::$tmp::return_value$___VERIFIER_nondet_int$1?1!0&0#1|) #b1 #b0))))

(assert 

 (= __ESBMC_ptr_obj_start_4 __ESBMC_ptr_obj_end_4))

(assert 

 (not 

  (and 

   (not 

    (bvult __ESBMC_ptr_obj_end_0 __ESBMC_ptr_obj_start_4)) 

   (not 

    (bvult __ESBMC_ptr_obj_end_4 __ESBMC_ptr_obj_start_0)))))

(assert 

 (not 

  (and 

   (not 

    (bvult __ESBMC_ptr_obj_end_2 __ESBMC_ptr_obj_start_4)) 

   (not 

    (bvult __ESBMC_ptr_obj_end_4 __ESBMC_ptr_obj_start_2)))))

(assert 

 (not 

  (and 

   (not 

    (bvult __ESBMC_ptr_obj_end_3 __ESBMC_ptr_obj_start_4)) 

   (not 

    (bvult __ESBMC_ptr_obj_end_4 __ESBMC_ptr_obj_start_3)))))

(assert 

 (= __ESBMC_ptr_obj_end_4 |smt_conv::__ESBMC_ptr_addr_range_4..end0|))

(assert 

 (= __ESBMC_ptr_obj_start_4 |smt_conv::__ESBMC_ptr_addr_range_4..start0|))

(assert 

 (= |smt_conv::smt_conv::collate_array_vals::30..end0| |smt_conv::smt_conv::collate_array_vals::31..end0|))

(assert 

 (= |smt_conv::smt_conv::collate_array_vals::30..start0| |smt_conv::smt_conv::collate_array_vals::31..start0|))

(assert 

 (= |smt_conv::smt_conv::collate_array_vals::31..end0| |smt_conv::smt_conv::collate_array_vals::32..end0|))

(assert 

 (= |smt_conv::smt_conv::collate_array_vals::31..start0| |smt_conv::smt_conv::collate_array_vals::32..start0|))

(assert 

 (= |smt_conv::smt_conv::collate_array_vals::32..end0| |smt_conv::smt_conv::collate_array_vals::33..end0|))

(assert 

 (= |smt_conv::smt_conv::collate_array_vals::32..start0| |smt_conv::smt_conv::collate_array_vals::33..start0|))

(assert 

 (= |smt_conv::smt_conv::collate_array_vals::33..end0| |smt_conv::smt_conv::collate_array_vals::34..end0|))

(assert 

 (= |smt_conv::smt_conv::collate_array_vals::33..start0| |smt_conv::smt_conv::collate_array_vals::34..start0|))

(assert 

 (= |smt_conv::smt_conv::collate_array_vals::26..end0| |smt_conv::smt_conv::collate_array_vals::40..end0|))

(assert 

 (= |smt_conv::smt_conv::collate_array_vals::26..start0| |smt_conv::smt_conv::collate_array_vals::40..start0|))

(assert 

 (= |smt_conv::smt_conv::collate_array_vals::27..end0| |smt_conv::smt_conv::collate_array_vals::41..end0|))

(assert 

 (= |smt_conv::smt_conv::collate_array_vals::27..start0| |smt_conv::smt_conv::collate_array_vals::41..start0|))

(assert 

 (= |smt_conv::smt_conv::collate_array_vals::28..end0| |smt_conv::smt_conv::collate_array_vals::42..end0|))

(assert 

 (= |smt_conv::smt_conv::collate_array_vals::28..start0| |smt_conv::smt_conv::collate_array_vals::42..start0|))

(assert 

 (= __ESBMC_ptr_obj_end_3 |smt_conv::smt_conv::collate_array_vals::43..end0|))

(assert 

 (= __ESBMC_ptr_obj_start_3 |smt_conv::smt_conv::collate_array_vals::43..start0|))

(assert (= 

 (bvnot 

  (select |__ESBMC_is_dynamic&0#1| #b0000000000000000000000000000000000000000000000000000000000000100)) #b1))

(assert 

 (= #b0000000000000000000000000000000000000000000000000000000000000000 |smt_conv::symex_dynamic::dynamic_454_array..pointer_offset0|))

(assert 

 (= #b0000000000000000000000000000000000000000000000000000000000000100 |smt_conv::symex_dynamic::dynamic_454_array..pointer_object0|))

(assert 

 (= |goto_symex::guard?0!0&0#7| 

  (bvnot 

   (bvand 

    (bvnot |goto_symex::guard?0!0&0#5|) 

    (bvnot 

     (ite 

      (= #b0000000000000000000000000000000000000000000000000000000000000000 |smt_conv::symex_dynamic::dynamic_454_array..pointer_object0|) #b1 #b0))))))

(assert 

 (not 

  (and 

   (not 

    (and 

     (= |smt_conv::smt_conv::collate_array_vals::0..end0| |smt_conv::smt_conv::collate_array_vals::45..end0|) 

     (= |smt_conv::smt_conv::collate_array_vals::0..start0| |smt_conv::smt_conv::collate_array_vals::45..start0|))) $e2)))

(assert 

 (not 

  (and 

   (not 

    (and 

     (= |smt_conv::smt_conv::collate_array_vals::3..end0| |smt_conv::smt_conv::collate_array_vals::45..end0|) 

     (= |smt_conv::smt_conv::collate_array_vals::3..start0| |smt_conv::smt_conv::collate_array_vals::45..start0|))) $e3)))

(assert 

 (not 

  (and 

   (not 

    (and 

     (= |smt_conv::smt_conv::collate_array_vals::9..end0| |smt_conv::smt_conv::collate_array_vals::45..end0|) 

     (= |smt_conv::smt_conv::collate_array_vals::9..start0| |smt_conv::smt_conv::collate_array_vals::45..start0|))) $e4)))

(assert 

 (= |smt_conv::smt_conv::collate_array_vals::18..end0| |smt_conv::smt_conv::collate_array_vals::45..end0|))

(assert 

 (= |smt_conv::smt_conv::collate_array_vals::18..start0| |smt_conv::smt_conv::collate_array_vals::45..start0|))

(assert 

 (not 

  (and 

   (not 

    (and 

     (= |smt_conv::smt_conv::collate_array_vals::30..end0| |smt_conv::smt_conv::collate_array_vals::45..end0|) 

     (= |smt_conv::smt_conv::collate_array_vals::30..start0| |smt_conv::smt_conv::collate_array_vals::45..start0|))) $e5)))

(assert 

 (= 

  (ite $e2 __ESBMC_ptr_obj_end_0 |smt_conv::smt_conv::collate_array_vals::45..end0|) |smt_conv::smt_conv::collate_array_vals::46..end0|))

(assert 

 (= 

  (ite $e2 __ESBMC_ptr_obj_start_0 |smt_conv::smt_conv::collate_array_vals::45..start0|) |smt_conv::smt_conv::collate_array_vals::46..start0|))

(assert 

 (= 

  (ite $e3 __ESBMC_ptr_obj_end_1 |smt_conv::smt_conv::collate_array_vals::46..end0|) |smt_conv::smt_conv::collate_array_vals::47..end0|))

(assert 

 (= 

  (ite $e3 __ESBMC_ptr_obj_start_1 |smt_conv::smt_conv::collate_array_vals::46..start0|) |smt_conv::smt_conv::collate_array_vals::47..start0|))

(assert 

 (= 

  (ite $e4 __ESBMC_ptr_obj_end_2 |smt_conv::smt_conv::collate_array_vals::47..end0|) |smt_conv::smt_conv::collate_array_vals::48..end0|))

(assert 

 (= 

  (ite $e4 __ESBMC_ptr_obj_start_2 |smt_conv::smt_conv::collate_array_vals::47..start0|) |smt_conv::smt_conv::collate_array_vals::48..start0|))

(assert 

 (= __ESBMC_ptr_obj_end_3 |smt_conv::smt_conv::collate_array_vals::49..end0|))

(assert 

 (= __ESBMC_ptr_obj_start_3 |smt_conv::smt_conv::collate_array_vals::49..start0|))

(assert 

 (= 

  (ite $e5 __ESBMC_ptr_obj_end_4 |smt_conv::smt_conv::collate_array_vals::49..end0|) |smt_conv::smt_conv::collate_array_vals::50..end0|))

(assert 

 (= 

  (ite $e5 __ESBMC_ptr_obj_start_4 |smt_conv::smt_conv::collate_array_vals::49..start0|) |smt_conv::smt_conv::collate_array_vals::50..start0|))

(assert 

 (= |symex_dynamic::dynamic_451_array&0#21| 

  (store |symex_dynamic::dynamic_451_array&0#20| #b0000 

   ((_ extract 7 0) |smt_conv::smt_conv::collate_array_vals::50..start0|))))

(assert 

 (= |symex_dynamic::dynamic_451_array&0#22| 

  (store |symex_dynamic::dynamic_451_array&0#21| #b0001 

   ((_ extract 15 8) |smt_conv::smt_conv::collate_array_vals::50..start0|))))

(assert 

 (= |symex_dynamic::dynamic_451_array&0#23| 

  (store |symex_dynamic::dynamic_451_array&0#22| #b0010 

   ((_ extract 23 16) |smt_conv::smt_conv::collate_array_vals::50..start0|))))

(assert 

 (= |symex_dynamic::dynamic_451_array&0#24| 

  (store |symex_dynamic::dynamic_451_array&0#23| #b0011 

   ((_ extract 31 24) |smt_conv::smt_conv::collate_array_vals::50..start0|))))

(assert 

 (= |symex_dynamic::dynamic_451_array&0#25| 

  (store |symex_dynamic::dynamic_451_array&0#24| #b0100 

   ((_ extract 39 32) |smt_conv::smt_conv::collate_array_vals::50..start0|))))

(assert 

 (= |symex_dynamic::dynamic_451_array&0#26| 

  (store |symex_dynamic::dynamic_451_array&0#25| #b0101 

   ((_ extract 47 40) |smt_conv::smt_conv::collate_array_vals::50..start0|))))

(assert 

 (= |symex_dynamic::dynamic_451_array&0#27| 

  (store |symex_dynamic::dynamic_451_array&0#26| #b0110 

   ((_ extract 55 48) |smt_conv::smt_conv::collate_array_vals::50..start0|))))

(assert 

 (= |symex_dynamic::dynamic_451_array&0#28| 

  (store |symex_dynamic::dynamic_451_array&0#27| #b0111 

   ((_ extract 63 56) |smt_conv::smt_conv::collate_array_vals::50..start0|))))

(assert 

 (= |c:@F@fillslotinfo::$tmp::return_value$___VERIFIER_nondet_int$1?1!0&0#1| |nondet$symex::nondet454|))

(assert 

 (= |c:@F@fillslotinfo::$tmp::return_value$___VERIFIER_nondet_int$1?1!0&0#1| |c:rule57_ebda_blast_2.i@1386@F@ebda_rsrc_controller@rc?1!0&0#6|))

(assert 

 (= |goto_symex::guard?0!0&0#8| 

  (ite 

   (= #b00000000000000000000000000000000 |c:rule57_ebda_blast_2.i@1386@F@ebda_rsrc_controller@rc?1!0&0#6|) #b1 #b0)))

(assert 

 (= |c:@F@ibmphp_init_devno::$tmp::return_value$___VERIFIER_nondet_int$1?1!0&0#1| |nondet$symex::nondet455|))

(assert 

 (= |c:@F@ibmphp_init_devno::$tmp::return_value$___VERIFIER_nondet_int$1?1!0&0#1| |c:rule57_ebda_blast_2.i@1386@F@ebda_rsrc_controller@rc?1!0&0#7|))

(assert 

 (= |goto_symex::guard?0!0&0#9| 

  (ite 

   (= #b00000000000000000000000000000000 |c:rule57_ebda_blast_2.i@1386@F@ebda_rsrc_controller@rc?1!0&0#7|) #b1 #b0)))

(assert 

 (= |symex_dynamic::dynamic_451_array&0#29| 

  (ite 

   (= #b1 |goto_symex::guard?0!0&0#7|) |symex_dynamic::dynamic_451_array&0#20| |symex_dynamic::dynamic_451_array&0#28|)))

(assert 

 (= |c:@used_tmp_slot&0#4| 

  (ite 

   (= #b1 |goto_symex::guard?0!0&0#7|) #b00000000000000000000000000000000 #b00000000000000000000000000000001)))

(assert 

 (not 

  (and 

   (not 

    (and 

     (= $e6 

      (bvadd __ESBMC_ptr_obj_start_0 |smt_conv::smt_conv::smt_convt::int_to_ptr0..pointer_offset0|)) $e11)) $e7)))

(assert 

 (not 

  (and 

   (not 

    (and 

     (= $e6 

      (bvadd __ESBMC_ptr_obj_start_2 |smt_conv::smt_conv::smt_convt::int_to_ptr0..pointer_offset0|)) 

     (= #b0000000000000000000000000000000000000000000000000000000000000010 |smt_conv::smt_conv::smt_convt::int_to_ptr0..pointer_object0|))) $e8)))

(assert 

 (not 

  (and 

   (not 

    (and 

     (= $e6 

      (bvadd __ESBMC_ptr_obj_start_3 |smt_conv::smt_conv::smt_convt::int_to_ptr0..pointer_offset0|)) 

     (= #b0000000000000000000000000000000000000000000000000000000000000011 |smt_conv::smt_conv::smt_convt::int_to_ptr0..pointer_object0|))) $e9)))

(assert 

 (not 

  (and 

   (not 

    (and 

     (= $e6 

      (bvadd __ESBMC_ptr_obj_start_4 |smt_conv::smt_conv::smt_convt::int_to_ptr0..pointer_offset0|)) 

     (= #b0000000000000000000000000000000000000000000000000000000000000100 |smt_conv::smt_conv::smt_convt::int_to_ptr0..pointer_object0|))) $e10)))

(assert 

 (not 

  (and 

   (not $e8) 

   (not $e7) 

   (not $e9) 

   (not $e10) 

   (not 

    (and 

     (= |smt_conv::smt_conv::smt_convt::int_to_ptr0..pointer_offset0| 

      (bvadd #b1111111111111111111111111111111111111111111111111111111111111111 $e6)) 

     (= #b0000000000000000000000000000000000000000000000000000000000000001 |smt_conv::smt_conv::smt_convt::int_to_ptr0..pointer_object0|))))))

(assert 

 (= |goto_symex::guard?0!0&0#10| 

  (ite 

   (and 

    (= |smt_conv::symex_dynamic::dynamic_452_array..pointer_object0| |smt_conv::smt_conv::smt_convt::int_to_ptr0..pointer_object0|) 

    (= #b0000000000000000000000000000000000000000000000000000000000000000 |smt_conv::smt_conv::smt_convt::int_to_ptr0..pointer_offset0|) 

    (not $e11)) #b1 #b0)))

(assert 

 (= |c:@freed_tmp_slot&0#4| 

  (ite 

   (= #b1 |goto_symex::guard?0!0&0#10|) #b00000000000000000000000000000001 #b00000000000000000000000000000000)))

(assert 

 (= |c:@freed_tmp_slot&0#5| 

  (ite 

   (= #b1 |goto_symex::guard?0!0&0#4|) #b00000000000000000000000000000001 |c:@freed_tmp_slot&0#4|)))

(assert 

 (= |c:@used_tmp_slot&0#5| 

  (ite 

   (= #b1 |goto_symex::guard?0!0&0#4|) #b00000000000000000000000000000000 |c:@used_tmp_slot&0#4|)))

(assert 

 (= |c:@freed_tmp_slot&0#6| 

  (ite 

   (= #b1 |goto_symex::guard?0!0&0#2|) #b00000000000000000000000000000001 |c:@freed_tmp_slot&0#5|)))

(assert 

 (= |c:@used_tmp_slot&0#6| 

  (ite 

   (= #b1 |goto_symex::guard?0!0&0#2|) #b00000000000000000000000000000000 |c:@used_tmp_slot&0#5|)))

(assert 

 (= |c:@freed_tmp_slot&0#7| 

  (ite 

   (= #b1 $e12) #b00000000000000000000000000000000 |c:@freed_tmp_slot&0#6|)))

(assert 

 (= |c:@used_tmp_slot&0#7| 

  (ite 

   (= #b1 $e12) #b00000000000000000000000000000001 |c:@used_tmp_slot&0#6|)))

(assert 

 (= |goto_symex::guard?0!0&0#11| 

  (ite 

   (= #b00000000000000000000000000000000 |c:@used_tmp_slot&0#7|) #b1 #b0)))

(assert 

 (= |goto_symex::guard?0!0&0#12| 

  (bvnot 

   (ite 

    (= #b00000000000000000000000000000000 |c:@freed_tmp_slot&0#7|) #b1 #b0))))

(assert (= |execution_statet::guard_exec?0!0| #b1))

(assert (= |goto_symex::guard?0!0&0#3| #b1))

(assert (= 

 (bvnot |goto_symex::guard?0!0&0#2|) #b1))

(check-sat)

(exit)
